50
1000
603
599
578
556
539
532
531
524
522
522
520
520
514
514
495
492
478
471
458
457
457
445
439
434
433
413
374
364
338
333
320
300
284
278
205
199
197
194
190
179
161
157
154
130
122
118
97
85
69
37
